(set-logic QF_UF)
(declare-fun A0 () Bool)
(declare-fun A1 () Bool)
(declare-fun A2 () Bool)
(declare-fun A3 () Bool)
(declare-fun A4 () Bool)
(declare-fun A5 () Bool)
(declare-fun A6 () Bool)
(declare-fun A7 () Bool)
(declare-fun A8 () Bool)
(declare-fun A9 () Bool)
(declare-fun A10 () Bool)
(declare-fun A11 () Bool)
(declare-fun A12 () Bool)
(declare-fun A13 () Bool)
(declare-fun A14 () Bool)
(declare-fun A15 () Bool)
(declare-fun A16 () Bool)
(declare-fun A17 () Bool)
(declare-fun A18 () Bool)
(declare-fun A19 () Bool)
(declare-fun A20 () Bool)
(declare-fun A21 () Bool)
(declare-fun A22 () Bool)
(declare-fun A23 () Bool)
(declare-fun A24 () Bool)
(assert (let ((.def_0 (not A18))) (let ((.def_1 (or .def_0 A10))) (let ((.def_2 (not .def_1))) (let ((.def_3 (and A1 A10))) (let ((.def_4 (or .def_3 .def_2))) (let ((.def_5 (not A19))) (let ((.def_6 (not A17))) (let ((.def_7 (and .def_6 .def_5))) (let ((.def_8 (not .def_7))) (let ((.def_9 (not A0))) (let ((.def_10 (and .def_9 A0))) (let ((.def_11 (not .def_10))) (let ((.def_12 (or .def_11 .def_8))) (let ((.def_13 (and .def_12 .def_4))) (let ((.def_14 (not A9))) (let ((.def_15 (or A6 .def_14))) (let ((.def_16 (not .def_15))) (let ((.def_17 (not A2))) (let ((.def_18 (or A5 .def_17))) (let ((.def_19 (or .def_18 .def_16))) (let ((.def_20 (and A4 A15))) (let ((.def_21 (or A1 A18))) (let ((.def_22 (not .def_21))) (let ((.def_23 (or .def_22 .def_20))) (let ((.def_24 (= .def_23 .def_19))) (let ((.def_25 (and .def_24 .def_13))) (let ((.def_26 (not .def_25))) (let ((.def_27 (or A5 .def_9))) (let ((.def_28 (not .def_27))) (let ((.def_29 (and A10 A5))) (let ((.def_30 (not .def_29))) (let ((.def_31 (and .def_30 .def_28))) (let ((.def_32 (and A17 A4))) (let ((.def_33 (not .def_32))) (let ((.def_34 (not A13))) (let ((.def_35 (and .def_34 A22))) (let ((.def_36 (not .def_35))) (let ((.def_37 (or .def_36 .def_33))) (let ((.def_38 (and .def_37 .def_31))) (let ((.def_39 (not .def_38))) (let ((.def_40 (= A8 A24))) (let ((.def_41 (not .def_40))) (let ((.def_42 (not A20))) (let ((.def_43 (or .def_34 .def_42))) (let ((.def_44 (or .def_43 .def_41))) (let ((.def_45 (or A15 A2))) (let ((.def_46 (not .def_45))) (let ((.def_47 (and A20 A23))) (let ((.def_48 (not .def_47))) (let ((.def_49 (and .def_48 .def_46))) (let ((.def_50 (or .def_49 .def_44))) (let ((.def_51 (and .def_50 .def_39))) (let ((.def_52 (not .def_51))) (let ((.def_53 (and .def_52 .def_26))) (let ((.def_54 (not A23))) (let ((.def_55 (and .def_54 A2))) (let ((.def_56 (not A15))) (let ((.def_57 (and .def_34 .def_56))) (let ((.def_58 (or .def_57 .def_55))) (let ((.def_59 (not .def_58))) (let ((.def_60 (not A10))) (let ((.def_61 (or .def_60 A18))) (let ((.def_62 (not .def_61))) (let ((.def_63 (not A24))) (let ((.def_64 (and .def_63 A8))) (let ((.def_65 (and .def_64 .def_62))) (let ((.def_66 (or .def_65 .def_59))) (let ((.def_67 (or .def_54 A12))) (let ((.def_68 (not .def_67))) (let ((.def_69 (not A21))) (let ((.def_70 (and A3 .def_69))) (let ((.def_71 (and .def_70 .def_68))) (let ((.def_72 (not .def_71))) (let ((.def_73 (not A7))) (let ((.def_74 (and .def_73 A1))) (let ((.def_75 (not A4))) (let ((.def_76 (and A17 .def_75))) (let ((.def_77 (not .def_76))) (let ((.def_78 (or .def_77 .def_74))) (let ((.def_79 (= .def_78 .def_72))) (let ((.def_80 (not .def_79))) (let ((.def_81 (and .def_80 .def_66))) (let ((.def_82 (not .def_81))) (let ((.def_83 (or A2 A17))) (let ((.def_84 (not A16))) (let ((.def_85 (and .def_84 .def_56))) (let ((.def_86 (or .def_85 .def_83))) (let ((.def_87 (and A17 A2))) (let ((.def_88 (not .def_87))) (let ((.def_89 (not A22))) (let ((.def_90 (and .def_89 .def_9))) (let ((.def_91 (or .def_90 .def_88))) (let ((.def_92 (and .def_91 .def_86))) (let ((.def_93 (not .def_92))) (let ((.def_94 (and A24 .def_5))) (let ((.def_95 (and A7 A24))) (let ((.def_96 (not .def_95))) (let ((.def_97 (or .def_96 .def_94))) (let ((.def_98 (not .def_97))) (let ((.def_99 (not A8))) (let ((.def_100 (or .def_99 .def_5))) (let ((.def_101 (not .def_100))) (let ((.def_102 (not A1))) (let ((.def_103 (or A7 .def_102))) (let ((.def_104 (not .def_103))) (let ((.def_105 (and .def_104 .def_101))) (let ((.def_106 (or .def_105 .def_98))) (let ((.def_107 (not .def_106))) (let ((.def_108 (and .def_107 .def_93))) (let ((.def_109 (not .def_108))) (let ((.def_110 (and .def_109 .def_82))) (let ((.def_111 (and .def_110 .def_53))) (let ((.def_112 (or .def_14 A11))) (let ((.def_113 (not .def_112))) (let ((.def_114 (not A5))) (let ((.def_115 (or .def_114 A10))) (let ((.def_116 (not .def_115))) (let ((.def_117 (and .def_116 .def_113))) (let ((.def_118 (or A18 A23))) (let ((.def_119 (not .def_118))) (let ((.def_120 (or A9 .def_0))) (let ((.def_121 (not .def_120))) (let ((.def_122 (= .def_121 .def_119))) (let ((.def_123 (= .def_122 .def_117))) (let ((.def_124 (not .def_123))) (let ((.def_125 (and A6 A7))) (let ((.def_126 (not .def_125))) (let ((.def_127 (and .def_54 .def_9))) (let ((.def_128 (or .def_127 .def_126))) (let ((.def_129 (not A11))) (let ((.def_130 (not A3))) (let ((.def_131 (or .def_130 .def_129))) (let ((.def_132 (not A6))) (let ((.def_133 (and .def_132 A15))) (let ((.def_134 (or .def_133 .def_131))) (let ((.def_135 (not .def_134))) (let ((.def_136 (and .def_135 .def_128))) (let ((.def_137 (and .def_136 .def_124))) (let ((.def_138 (not .def_137))) (let ((.def_139 (and A22 A5))) (let ((.def_140 (= .def_63 .def_34))) (let ((.def_141 (not .def_140))) (let ((.def_142 (or .def_141 .def_139))) (let ((.def_143 (not A12))) (let ((.def_144 (and .def_60 .def_143))) (let ((.def_145 (not .def_144))) (let ((.def_146 (and .def_63 .def_63))) (let ((.def_147 (or .def_146 .def_145))) (let ((.def_148 (not .def_147))) (let ((.def_149 (or .def_148 .def_142))) (let ((.def_150 (not .def_149))) (let ((.def_151 (= .def_14 .def_130))) (let ((.def_152 (or .def_14 A15))) (let ((.def_153 (and .def_152 .def_151))) (let ((.def_154 (not .def_153))) (let ((.def_155 (and .def_130 A14))) (let ((.def_156 (or A20 .def_42))) (let ((.def_157 (and .def_156 .def_155))) (let ((.def_158 (and .def_157 .def_154))) (let ((.def_159 (and .def_158 .def_150))) (let ((.def_160 (or .def_159 .def_138))) (let ((.def_161 (not .def_160))) (let ((.def_162 (and A3 .def_89))) (let ((.def_163 (not .def_162))) (let ((.def_164 (not A14))) (let ((.def_165 (or .def_164 .def_63))) (let ((.def_166 (not .def_165))) (let ((.def_167 (or .def_166 .def_163))) (let ((.def_168 (not .def_167))) (let ((.def_169 (or A15 A8))) (let ((.def_170 (and A17 .def_164))) (let ((.def_171 (not .def_170))) (let ((.def_172 (and .def_171 .def_169))) (let ((.def_173 (and .def_172 .def_168))) (let ((.def_174 (and A6 .def_84))) (let ((.def_175 (not .def_174))) (let ((.def_176 (and A15 A17))) (let ((.def_177 (not .def_176))) (let ((.def_178 (= .def_177 .def_175))) (let ((.def_179 (not .def_178))) (let ((.def_180 (and .def_102 .def_9))) (let ((.def_181 (not .def_180))) (let ((.def_182 (or .def_129 A12))) (let ((.def_183 (or .def_182 .def_181))) (let ((.def_184 (or .def_183 .def_179))) (let ((.def_185 (not .def_184))) (let ((.def_186 (or .def_185 .def_173))) (let ((.def_187 (and .def_132 A3))) (let ((.def_188 (or A20 .def_73))) (let ((.def_189 (and .def_188 .def_187))) (let ((.def_190 (not .def_189))) (let ((.def_191 (or .def_89 A10))) (let ((.def_192 (or A23 A13))) (let ((.def_193 (not .def_192))) (let ((.def_194 (and .def_193 .def_191))) (let ((.def_195 (and .def_194 .def_190))) (let ((.def_196 (and .def_34 A23))) (let ((.def_197 (not .def_196))) (let ((.def_198 (or A16 A15))) (let ((.def_199 (and .def_198 .def_197))) (let ((.def_200 (and A20 .def_5))) (let ((.def_201 (not .def_200))) (let ((.def_202 (and A24 A16))) (let ((.def_203 (not .def_202))) (let ((.def_204 (or .def_203 .def_201))) (let ((.def_205 (and .def_204 .def_199))) (let ((.def_206 (not .def_205))) (let ((.def_207 (or .def_206 .def_195))) (let ((.def_208 (and .def_207 .def_186))) (let ((.def_209 (and .def_208 .def_161))) (let ((.def_210 (and .def_209 .def_111))) (let ((.def_211 (not .def_210))) (let ((.def_212 (and A22 .def_56))) (let ((.def_213 (and A9 .def_5))) (let ((.def_214 (not .def_213))) (let ((.def_215 (and .def_214 .def_212))) (let ((.def_216 (not .def_215))) (let ((.def_217 (or A19 .def_69))) (let ((.def_218 (not .def_217))) (let ((.def_219 (= .def_9 .def_114))) (let ((.def_220 (or .def_219 .def_218))) (let ((.def_221 (not .def_220))) (let ((.def_222 (and .def_221 .def_216))) (let ((.def_223 (not .def_222))) (let ((.def_224 (and .def_54 A6))) (let ((.def_225 (not .def_224))) (let ((.def_226 (and .def_89 A4))) (let ((.def_227 (not .def_226))) (let ((.def_228 (= .def_227 .def_225))) (let ((.def_229 (not .def_228))) (let ((.def_230 (or A9 .def_114))) (let ((.def_231 (not .def_230))) (let ((.def_232 (or A20 A18))) (let ((.def_233 (not .def_232))) (let ((.def_234 (or .def_233 .def_231))) (let ((.def_235 (not .def_234))) (let ((.def_236 (and .def_235 .def_229))) (let ((.def_237 (not .def_236))) (let ((.def_238 (and .def_237 .def_223))) (let ((.def_239 (not .def_238))) (let ((.def_240 (and .def_14 A3))) (let ((.def_241 (and A8 A19))) (let ((.def_242 (or .def_241 .def_240))) (let ((.def_243 (not .def_242))) (let ((.def_244 (or .def_89 .def_75))) (let ((.def_245 (not .def_244))) (let ((.def_246 (or A0 .def_34))) (let ((.def_247 (not .def_246))) (let ((.def_248 (and .def_247 .def_245))) (let ((.def_249 (or .def_248 .def_243))) (let ((.def_250 (and A13 .def_129))) (let ((.def_251 (or A7 .def_89))) (let ((.def_252 (and .def_251 .def_250))) (let ((.def_253 (and .def_9 A12))) (let ((.def_254 (or .def_253 .def_218))) (let ((.def_255 (or .def_254 .def_252))) (let ((.def_256 (or .def_255 .def_249))) (let ((.def_257 (and .def_256 .def_239))) (let ((.def_258 (not .def_257))) (let ((.def_259 (and A14 .def_6))) (let ((.def_260 (not .def_259))) (let ((.def_261 (or .def_75 .def_17))) (let ((.def_262 (or .def_261 .def_260))) (let ((.def_263 (not .def_262))) (let ((.def_264 (= .def_143 A17))) (let ((.def_265 (not .def_264))) (let ((.def_266 (or .def_99 .def_9))) (let ((.def_267 (not .def_266))) (let ((.def_268 (or .def_267 .def_265))) (let ((.def_269 (or .def_268 .def_263))) (let ((.def_270 (or A18 .def_164))) (let ((.def_271 (or .def_132 .def_132))) (let ((.def_272 (= .def_271 .def_270))) (let ((.def_273 (not .def_272))) (let ((.def_274 (or A21 .def_73))) (let ((.def_275 (not .def_274))) (let ((.def_276 (= .def_102 A14))) (let ((.def_277 (not .def_276))) (let ((.def_278 (and .def_277 .def_275))) (let ((.def_279 (not .def_278))) (let ((.def_280 (and .def_279 .def_273))) (let ((.def_281 (= .def_280 .def_269))) (let ((.def_282 (and .def_14 .def_63))) (let ((.def_283 (not .def_282))) (let ((.def_284 (= A1 A9))) (let ((.def_285 (not .def_284))) (let ((.def_286 (or .def_285 .def_283))) (let ((.def_287 (and A5 A6))) (let ((.def_288 (not .def_287))) (let ((.def_289 (and A17 .def_0))) (let ((.def_290 (= .def_289 .def_288))) (let ((.def_291 (not .def_290))) (let ((.def_292 (and .def_291 .def_286))) (let ((.def_293 (or A6 A3))) (let ((.def_294 (and .def_89 .def_129))) (let ((.def_295 (or .def_294 .def_293))) (let ((.def_296 (= .def_132 A2))) (let ((.def_297 (and A3 A21))) (let ((.def_298 (not .def_297))) (let ((.def_299 (or .def_298 .def_296))) (let ((.def_300 (not .def_299))) (let ((.def_301 (= .def_300 .def_295))) (let ((.def_302 (not .def_301))) (let ((.def_303 (and .def_302 .def_292))) (let ((.def_304 (not .def_303))) (let ((.def_305 (= .def_304 .def_281))) (let ((.def_306 (not .def_305))) (let ((.def_307 (or .def_306 .def_258))) (let ((.def_308 (not .def_307))) (let ((.def_309 (and A3 A17))) (let ((.def_310 (not .def_309))) (let ((.def_311 (or A14 A23))) (let ((.def_312 (not .def_311))) (let ((.def_313 (and .def_312 .def_310))) (let ((.def_314 (not .def_313))) (let ((.def_315 (and A5 .def_56))) (let ((.def_316 (not .def_315))) (let ((.def_317 (or .def_42 A14))) (let ((.def_318 (not .def_317))) (let ((.def_319 (and .def_318 .def_316))) (let ((.def_320 (not .def_319))) (let ((.def_321 (or .def_320 .def_314))) (let ((.def_322 (and .def_54 .def_56))) (let ((.def_323 (and A20 .def_14))) (let ((.def_324 (not .def_323))) (let ((.def_325 (or .def_324 .def_322))) (let ((.def_326 (not .def_325))) (let ((.def_327 (and .def_69 A7))) (let ((.def_328 (not .def_327))) (let ((.def_329 (or .def_69 .def_84))) (let ((.def_330 (not .def_329))) (let ((.def_331 (and .def_330 .def_328))) (let ((.def_332 (not .def_331))) (let ((.def_333 (or .def_332 .def_326))) (let ((.def_334 (and .def_333 .def_321))) (let ((.def_335 (not .def_334))) (let ((.def_336 (or .def_5 .def_42))) (let ((.def_337 (not .def_336))) (let ((.def_338 (or .def_84 .def_9))) (let ((.def_339 (and .def_338 .def_337))) (let ((.def_340 (and .def_6 A12))) (let ((.def_341 (or .def_54 A3))) (let ((.def_342 (not .def_341))) (let ((.def_343 (and .def_342 .def_340))) (let ((.def_344 (and .def_343 .def_339))) (let ((.def_345 (not .def_344))) (let ((.def_346 (and .def_84 A16))) (let ((.def_347 (not .def_346))) (let ((.def_348 (and A5 A1))) (let ((.def_349 (or .def_348 .def_347))) (let ((.def_350 (not .def_349))) (let ((.def_351 (or A11 .def_60))) (let ((.def_352 (= A21 .def_102))) (let ((.def_353 (and .def_352 .def_351))) (let ((.def_354 (and .def_353 .def_350))) (let ((.def_355 (and .def_354 .def_345))) (let ((.def_356 (not .def_355))) (let ((.def_357 (or .def_356 .def_335))) (let ((.def_358 (or A3 A22))) (let ((.def_359 (or .def_130 .def_102))) (let ((.def_360 (= .def_359 .def_358))) (let ((.def_361 (and .def_73 .def_54))) (let ((.def_362 (not .def_361))) (let ((.def_363 (or A20 A7))) (let ((.def_364 (not .def_363))) (let ((.def_365 (and .def_364 .def_362))) (let ((.def_366 (not .def_365))) (let ((.def_367 (or .def_366 .def_360))) (let ((.def_368 (and A12 .def_14))) (let ((.def_369 (not .def_368))) (let ((.def_370 (and A17 .def_42))) (let ((.def_371 (and .def_370 .def_369))) (let ((.def_372 (not .def_371))) (let ((.def_373 (and .def_14 A23))) (let ((.def_374 (or A11 .def_17))) (let ((.def_375 (not .def_374))) (let ((.def_376 (or .def_375 .def_373))) (let ((.def_377 (not .def_376))) (let ((.def_378 (= .def_377 .def_372))) (let ((.def_379 (not .def_378))) (let ((.def_380 (= .def_379 .def_367))) (let ((.def_381 (not .def_380))) (let ((.def_382 (or A7 .def_130))) (let ((.def_383 (not .def_382))) (let ((.def_384 (and .def_42 A19))) (let ((.def_385 (not .def_384))) (let ((.def_386 (or .def_385 .def_383))) (let ((.def_387 (not .def_386))) (let ((.def_388 (or A13 A15))) (let ((.def_389 (not .def_388))) (let ((.def_390 (or A17 .def_14))) (let ((.def_391 (not .def_390))) (let ((.def_392 (and .def_391 .def_389))) (let ((.def_393 (= .def_392 .def_387))) (let ((.def_394 (not .def_393))) (let ((.def_395 (or A15 A23))) (let ((.def_396 (not .def_395))) (let ((.def_397 (or A12 .def_6))) (let ((.def_398 (not .def_397))) (let ((.def_399 (= .def_398 .def_396))) (let ((.def_400 (not .def_399))) (let ((.def_401 (or A0 .def_99))) (let ((.def_402 (or A11 .def_114))) (let ((.def_403 (not .def_402))) (let ((.def_404 (and .def_403 .def_401))) (let ((.def_405 (and .def_404 .def_400))) (let ((.def_406 (not .def_405))) (let ((.def_407 (and .def_406 .def_394))) (let ((.def_408 (= .def_407 .def_381))) (let ((.def_409 (not .def_408))) (let ((.def_410 (and .def_409 .def_357))) (let ((.def_411 (not .def_410))) (let ((.def_412 (= .def_411 .def_308))) (let ((.def_413 (not .def_412))) (let ((.def_414 (and .def_413 .def_211))) .def_414))))))))))))))))))))))))))))))))))))))))))))))))))))))))))))))))))))))))))))))))))))))))))))))))))))))))))))))))))))))))))))))))))))))))))))))))))))))))))))))))))))))))))))))))))))))))))))))))))))))))))))))))))))))))))))))))))))))))))))))))))))))))))))))))))))))))))))))))))))))))))))))))))))))))))))))))))))))))))))))))))))))))))))))))))))))))))))))))))))))))))))))))))))))))))))))))))))))))))))))))))))))))))))))))
(check-sat)
